FourierSAT_Github_AIJ/res/fs_1core/t4pm3-6666.spn.cnf.txt
o 54
o 52
o 50
o 48
o 44
